200
1000
240
240
240
239
239
239
238
238
238
238
238
237
236
236
236
236
235
234
234
234
234
233
233
233
232
232
232
231
231
231
231
230
230
230
229
229
229
227
226
226
226
225
225
225
223
223
223
223
223
221
221
221
219
219
219
217
217
216
216
216
215
215
214
214
214
213
213
213
211
210
210
209
209
209
208
208
208
208
208
207
207
207
207
207
207
206
205
205
205
204
204
204
203
203
203
202
201
201
201
200
200
200
199
199
198
198
198
197
197
197
196
196
195
194
194
194
193
192
192
191
191
191
190
189
188
187
186
186
185
185
185
185
185
185
184
183
183
183
182
182
182
181
180
180
180
180
179
179
179
179
178
178
177
177
177
176
176
176
176
175
175
174
174
174
173
173
173
172
171
171
171
171
171
170
170
169
169
168
168
168
168
168
168
167
166
166
166
166
166
165
165
165
165
164
164
164
163
163
162
162
